20
29	22	56	11	40
26	92	84	92	9
22	174	9	41	92
16	234	49	30	62
18	245	53	57	1
1	135	81	62	73
16	19	52	57	23
8	86	94	82	10
30	347	51	91	56
22	151	131	58	17
7	38	70	11	95
3	197	31	88	54
27	112	92	20	80
20	11	25	43	51
17	153	83	24	45
27	236	39	24	60
6	193	47	80	72
25	134	60	7	3
19	157	123	43	35
23	150	108	95	24
